2 6 5 12 16 3 1 10 18 8 15 7 19 4 14 0 11 9 17 13  
2 6 5 12 16 18 8 7 17 9 4 19 0 1 10 14 11 3 15 13  
6 2 16 18 5 12 14 17 9 0 1 7 19 10 11 4 8 3 15 13  
2 6 16 18 5 12 14 17 9 1 4 0 19 10 11 7 8 3 15 13  
2 6 5 12 16 18 14 7 17 9 4 19 8 1 10 11 0 3 15 13  
2 6 5 12 16 18 14 7 17 9 4 19 8 1 10 11 0 3 15 13  
2 6 5 12 16 3 1 10 18 8 15 7 4 0 14 11 19 13 9 17  
2 6 5 12 16 18 14 7 17 9 19 10 1 4 11 0 8 3 15 13  
2 6 5 12 16 18 14 7 17 9 1 19 0 10 11 4 8 3 15 13  
2 6 5 12 16 3 1 10 18 15 7 19 4 8 0 14 11 9 17 13  
2 6 5 12 16 3 1 10 18 15 7 19 4 8 14 0 11 9 17 13  
2 6 5 12 16 3 1 10 18 8 15 7 4 14 11 0 9 17 19 13  
2 6 5 12 16 3 1 18 8 7 17 9 19 4 0 10 14 11 15 13  
2 6 5 12 16 3 1 10 18 8 15 7 19 4 14 13 11 9 17 0  
2 6 5 12 16 3 1 10 18 7 8 15 4 14 19 13 11 9 17 0  
2 6 5 12 16 3 1 10 18 14 15 7 17 4 13 0 11 9 19 8  
